(set-info :Origin "This instance was generated by: BanditFuzz-- an RL fuzzer for SMT solvers" )
(set-info :Author "Joe Scott, Fed Mora, Vijay Ganesh" )
(set-info :Contact "Joe Scott, joseph.scott@uwaterloo.ca")
(set-logic QF_BV)
(declare-const bool_0 Bool)
(declare-const bool_1 Bool)
(declare-const bool_2 Bool)
(declare-const bool_3 Bool)
(declare-const bool_4 Bool)
(declare-const bv_0 (_ BitVec 32))
(declare-const bv_1 (_ BitVec 32))
(declare-const bv_2 (_ BitVec 32))
(declare-const bv_3 (_ BitVec 32))
(declare-const bv_4 (_ BitVec 32))
(assert (bvuge (bvshl (bvxnor #xc0748ec5  bv_1) (bvudiv #x0874d95b  #xadb6dbfe )) (bvor (bvxor #x29204300  bv_4) (bvsub #x63763218  #xcf933679 ))))
(assert (bvugt (bvlshr (bvmul #x6b1b6b59  #xba01be40 ) (bvurem bv_1 bv_1)) (bvsrem (bvshl #x124270de  #xf964ca92 ) (bvashr #xd75359fe  bv_0))))
(assert (bvugt (bvsrem (bvnor bv_3 bv_2) (bvashr #x292221cf  #xcd6cdcae )) (bvudiv (bvand #x7158c3f4  bv_2) (bvlshr bv_1 bv_0))))
(assert (bvult (bvsdiv (bvsmod bv_4 #x26f6766c ) (bvmul bv_0 bv_4)) (bvnand (bvsdiv #xb1af6ca9  bv_3) (bvlshr #x7ded71e7  bv_2))))
(assert (bvsgt (bvor (bvsrem #xc480ed3b  bv_4) (bvsdiv #x515d3e8d  #xedeaf2a4 )) (bvshl (bvudiv #xe5b39edf  bv_0) (bvnor bv_3 #xc3f09dbb ))))
(check-sat)
(exit)
